p cnf 526 1784
c p weight -209 1 0
c p weight 209 -1 0
c p weight 213 6.12323399573676603586882014729198302312846062338790031898128063403419218957424163818359375E-17 0
c p weight -213 1 0
c p weight 214 1 0
c p weight -214 1 0
c p weight -211 1 0
c p weight 211 -1 0
c p weight -215 1 0
c p weight 215 -1 0
c p weight -217 1 0
c p weight 217 -1 0
c p weight -220 1 0
c p weight 220 -1 0
c p weight -223 1 0
c p weight 223 -1 0
c p weight -226 1 0
c p weight 226 -1 0
c p weight -229 1 0
c p weight 229 -1 0
c p weight -232 1 0
c p weight 232 -1 0
c p weight -235 1 0
c p weight 235 -1 0
c p weight -238 1 0
c p weight 238 -1 0
c p weight -241 1 0
c p weight 241 -1 0
c p weight -244 1 0
c p weight 244 -1 0
c p weight -247 1 0
c p weight 247 -1 0
c p weight -250 1 0
c p weight 250 -1 0
c p weight -253 1 0
c p weight 253 -1 0
c p weight -256 1 0
c p weight 256 -1 0
c p weight -259 1 0
c p weight 259 -1 0
c p weight -262 1 0
c p weight 262 -1 0
c p weight -265 1 0
c p weight 265 -1 0
c p weight -268 1 0
c p weight 268 -1 0
c p weight -271 1 0
c p weight 271 -1 0
c p weight -274 1 0
c p weight 274 -1 0
c p weight -277 1 0
c p weight 277 -1 0
c p weight -280 1 0
c p weight 280 -1 0
c p weight -283 1 0
c p weight 283 -1 0
c p weight -286 1 0
c p weight 286 -1 0
c p weight -289 1 0
c p weight 289 -1 0
c p weight -292 1 0
c p weight 292 -1 0
c p weight -295 1 0
c p weight 295 -1 0
c p weight -298 1 0
c p weight 298 -1 0
c p weight -301 1 0
c p weight 301 -1 0
c p weight -304 1 0
c p weight 304 -1 0
c p weight -307 1 0
c p weight 307 -1 0
c p weight -310 1 0
c p weight 310 -1 0
c p weight -313 1 0
c p weight 313 -1 0
c p weight -316 1 0
c p weight 316 -1 0
c p weight -319 1 0
c p weight 319 -1 0
c p weight -322 1 0
c p weight 322 -1 0
c p weight -325 1 0
c p weight 325 -1 0
c p weight -328 1 0
c p weight 328 -1 0
c p weight -331 1 0
c p weight 331 -1 0
c p weight -334 1 0
c p weight 334 -1 0
c p weight -337 1 0
c p weight 337 -1 0
c p weight -340 1 0
c p weight 340 -1 0
c p weight -343 1 0
c p weight 343 -1 0
c p weight -346 1 0
c p weight 346 -1 0
c p weight -349 1 0
c p weight 349 -1 0
c p weight -352 1 0
c p weight 352 -1 0
c p weight -355 1 0
c p weight 355 -1 0
c p weight -358 1 0
c p weight 358 -1 0
c p weight -361 1 0
c p weight 361 -1 0
c p weight -364 1 0
c p weight 364 -1 0
c p weight -367 1 0
c p weight 367 -1 0
c p weight -370 1 0
c p weight 370 -1 0
c p weight -373 1 0
c p weight 373 -1 0
c p weight -376 1 0
c p weight 376 -1 0
c p weight -379 1 0
c p weight 379 -1 0
c p weight -382 1 0
c p weight 382 -1 0
c p weight -385 1 0
c p weight 385 -1 0
c p weight -388 1 0
c p weight 388 -1 0
c p weight -391 1 0
c p weight 391 -1 0
c p weight -394 1 0
c p weight 394 -1 0
c p weight -397 1 0
c p weight 397 -1 0
c p weight -400 1 0
c p weight 400 -1 0
c p weight -403 1 0
c p weight 403 -1 0
c p weight -406 1 0
c p weight 406 -1 0
c p weight -409 1 0
c p weight 409 -1 0
c p weight -412 1 0
c p weight 412 -1 0
c p weight -415 1 0
c p weight 415 -1 0
c p weight -418 1 0
c p weight 418 -1 0
c p weight -421 1 0
c p weight 421 -1 0
c p weight -424 1 0
c p weight 424 -1 0
c p weight -427 1 0
c p weight 427 -1 0
c p weight -430 1 0
c p weight 430 -1 0
c p weight -433 1 0
c p weight 433 -1 0
c p weight -436 1 0
c p weight 436 -1 0
c p weight -439 1 0
c p weight 439 -1 0
c p weight -442 1 0
c p weight 442 -1 0
c p weight -445 1 0
c p weight 445 -1 0
c p weight -448 1 0
c p weight 448 -1 0
c p weight -451 1 0
c p weight 451 -1 0
c p weight -454 1 0
c p weight 454 -1 0
c p weight -457 1 0
c p weight 457 -1 0
c p weight -460 1 0
c p weight 460 -1 0
c p weight -463 1 0
c p weight 463 -1 0
c p weight -466 1 0
c p weight 466 -1 0
c p weight -469 1 0
c p weight 469 -1 0
c p weight -472 1 0
c p weight 472 -1 0
c p weight -475 1 0
c p weight 475 -1 0
c p weight -478 1 0
c p weight 478 -1 0
c p weight -481 1 0
c p weight 481 -1 0
c p weight -484 1 0
c p weight 484 -1 0
c p weight -487 1 0
c p weight 487 -1 0
c p weight -490 1 0
c p weight 490 -1 0
c p weight -493 1 0
c p weight 493 -1 0
c p weight -496 1 0
c p weight 496 -1 0
c p weight -499 1 0
c p weight 499 -1 0
c p weight -502 1 0
c p weight 502 -1 0
c p weight -505 1 0
c p weight 505 -1 0
c p weight -508 1 0
c p weight 508 -1 0
c p weight -511 1 0
c p weight 511 -1 0
c p weight -514 1 0
c p weight 514 -1 0
c p weight -517 1 0
c p weight 517 -1 0
c p weight -520 1 0
c p weight 520 -1 0
c p weight -523 1 0
c p weight 523 -1 0
c p weight 526 0.5 0
c p weight -526 1 0
526 0
-207 0
-205 0
-203 0
-201 0
-199 0
-197 0
-195 0
-193 0
-191 0
-189 0
-187 0
-185 0
-183 0
-181 0
-179 0
-177 0
-175 0
-173 0
-171 0
-169 0
-167 0
-165 0
-163 0
-161 0
-159 0
-157 0
-155 0
-153 0
-151 0
-149 0
-147 0
-145 0
-143 0
-141 0
-139 0
-137 0
-135 0
-133 0
-131 0
-129 0
-127 0
-125 0
-123 0
-121 0
-119 0
-117 0
-115 0
-113 0
-111 0
-109 0
-107 0
-105 0
-103 0
-101 0
-99 0
-97 0
-95 0
-93 0
-91 0
-89 0
-87 0
-85 0
-83 0
-81 0
-79 0
-77 0
-75 0
-73 0
-71 0
-69 0
-67 0
-65 0
-63 0
-61 0
-59 0
-57 0
-55 0
-53 0
-51 0
-49 0
-47 0
-45 0
-43 0
-41 0
-39 0
-37 0
-35 0
-33 0
-31 0
-29 0
-27 0
-25 0
-23 0
-21 0
-19 0
-17 0
-15 0
-13 0
-11 0
-9 0
-7 0
-5 0
-3 0
-1 0
-209 207 0
-209 208 0
209 -207 -208 0
210 207 -208 0
210 -207 208 0
-210 207 208 0
-210 -207 -208 0
-211 212 0
-211 210 0
-211 -207 0
211 -212 207 -210 0
212 -207 210 0
-212 207 210 0
-213 210 0
212 -213 -207 0
-212 -213 207 0
212 213 207 -210 0
-212 213 -207 -210 0
-214 210 0
212 -214 207 0
-212 -214 -207 0
212 214 -207 -210 0
-212 214 207 -210 0
-215 212 0
-215 210 0
215 -212 -210 0
216 212 -210 0
216 -212 210 0
-216 212 210 0
-216 -212 -210 0
-217 212 0
-217 206 0
-217 205 -216 0
-217 -205 216 0
217 -212 205 216 -206 0
217 -212 -205 -216 -206 0
219 212 -205 0
219 -212 205 0
-219 212 205 0
-219 -212 -205 0
218 216 -206 0
218 -216 206 0
-218 216 206 0
-218 -216 -206 0
-220 219 0
-220 204 0
-220 203 -206 0
-220 -203 206 0
220 -219 203 206 -204 0
220 -219 -203 -206 -204 0
222 219 -203 0
222 -219 203 0
-222 219 203 0
-222 -219 -203 0
221 206 -204 0
221 -206 204 0
-221 206 204 0
-221 -206 -204 0
-223 222 0
-223 202 0
-223 201 -204 0
-223 -201 204 0
223 -222 201 204 -202 0
223 -222 -201 -204 -202 0
225 222 -201 0
225 -222 201 0
-225 222 201 0
-225 -222 -201 0
224 204 -202 0
224 -204 202 0
-224 204 202 0
-224 -204 -202 0
-226 225 0
-226 200 0
-226 199 -202 0
-226 -199 202 0
226 -225 199 202 -200 0
226 -225 -199 -202 -200 0
228 225 -199 0
228 -225 199 0
-228 225 199 0
-228 -225 -199 0
227 202 -200 0
227 -202 200 0
-227 202 200 0
-227 -202 -200 0
-229 228 0
-229 198 0
-229 197 -200 0
-229 -197 200 0
229 -228 197 200 -198 0
229 -228 -197 -200 -198 0
231 228 -197 0
231 -228 197 0
-231 228 197 0
-231 -228 -197 0
230 200 -198 0
230 -200 198 0
-230 200 198 0
-230 -200 -198 0
-232 231 0
-232 196 0
-232 195 -198 0
-232 -195 198 0
232 -231 195 198 -196 0
232 -231 -195 -198 -196 0
234 231 -195 0
234 -231 195 0
-234 231 195 0
-234 -231 -195 0
233 198 -196 0
233 -198 196 0
-233 198 196 0
-233 -198 -196 0
-235 234 0
-235 194 0
-235 193 -196 0
-235 -193 196 0
235 -234 193 196 -194 0
235 -234 -193 -196 -194 0
237 234 -193 0
237 -234 193 0
-237 234 193 0
-237 -234 -193 0
236 196 -194 0
236 -196 194 0
-236 196 194 0
-236 -196 -194 0
-238 237 0
-238 192 0
-238 191 -194 0
-238 -191 194 0
238 -237 191 194 -192 0
238 -237 -191 -194 -192 0
240 237 -191 0
240 -237 191 0
-240 237 191 0
-240 -237 -191 0
239 194 -192 0
239 -194 192 0
-239 194 192 0
-239 -194 -192 0
-241 240 0
-241 190 0
-241 189 -192 0
-241 -189 192 0
241 -240 189 192 -190 0
241 -240 -189 -192 -190 0
243 240 -189 0
243 -240 189 0
-243 240 189 0
-243 -240 -189 0
242 192 -190 0
242 -192 190 0
-242 192 190 0
-242 -192 -190 0
-244 243 0
-244 188 0
-244 187 -190 0
-244 -187 190 0
244 -243 187 190 -188 0
244 -243 -187 -190 -188 0
246 243 -187 0
246 -243 187 0
-246 243 187 0
-246 -243 -187 0
245 190 -188 0
245 -190 188 0
-245 190 188 0
-245 -190 -188 0
-247 246 0
-247 186 0
-247 185 -188 0
-247 -185 188 0
247 -246 185 188 -186 0
247 -246 -185 -188 -186 0
249 246 -185 0
249 -246 185 0
-249 246 185 0
-249 -246 -185 0
248 188 -186 0
248 -188 186 0
-248 188 186 0
-248 -188 -186 0
-250 249 0
-250 184 0
-250 183 -186 0
-250 -183 186 0
250 -249 183 186 -184 0
250 -249 -183 -186 -184 0
252 249 -183 0
252 -249 183 0
-252 249 183 0
-252 -249 -183 0
251 186 -184 0
251 -186 184 0
-251 186 184 0
-251 -186 -184 0
-253 252 0
-253 182 0
-253 181 -184 0
-253 -181 184 0
253 -252 181 184 -182 0
253 -252 -181 -184 -182 0
255 252 -181 0
255 -252 181 0
-255 252 181 0
-255 -252 -181 0
254 184 -182 0
254 -184 182 0
-254 184 182 0
-254 -184 -182 0
-256 255 0
-256 180 0
-256 179 -182 0
-256 -179 182 0
256 -255 179 182 -180 0
256 -255 -179 -182 -180 0
258 255 -179 0
258 -255 179 0
-258 255 179 0
-258 -255 -179 0
257 182 -180 0
257 -182 180 0
-257 182 180 0
-257 -182 -180 0
-259 258 0
-259 178 0
-259 177 -180 0
-259 -177 180 0
259 -258 177 180 -178 0
259 -258 -177 -180 -178 0
261 258 -177 0
261 -258 177 0
-261 258 177 0
-261 -258 -177 0
260 180 -178 0
260 -180 178 0
-260 180 178 0
-260 -180 -178 0
-262 261 0
-262 176 0
-262 175 -178 0
-262 -175 178 0
262 -261 175 178 -176 0
262 -261 -175 -178 -176 0
264 261 -175 0
264 -261 175 0
-264 261 175 0
-264 -261 -175 0
263 178 -176 0
263 -178 176 0
-263 178 176 0
-263 -178 -176 0
-265 264 0
-265 174 0
-265 173 -176 0
-265 -173 176 0
265 -264 173 176 -174 0
265 -264 -173 -176 -174 0
267 264 -173 0
267 -264 173 0
-267 264 173 0
-267 -264 -173 0
266 176 -174 0
266 -176 174 0
-266 176 174 0
-266 -176 -174 0
-268 267 0
-268 172 0
-268 171 -174 0
-268 -171 174 0
268 -267 171 174 -172 0
268 -267 -171 -174 -172 0
270 267 -171 0
270 -267 171 0
-270 267 171 0
-270 -267 -171 0
269 174 -172 0
269 -174 172 0
-269 174 172 0
-269 -174 -172 0
-271 270 0
-271 170 0
-271 169 -172 0
-271 -169 172 0
271 -270 169 172 -170 0
271 -270 -169 -172 -170 0
273 270 -169 0
273 -270 169 0
-273 270 169 0
-273 -270 -169 0
272 172 -170 0
272 -172 170 0
-272 172 170 0
-272 -172 -170 0
-274 273 0
-274 168 0
-274 167 -170 0
-274 -167 170 0
274 -273 167 170 -168 0
274 -273 -167 -170 -168 0
276 273 -167 0
276 -273 167 0
-276 273 167 0
-276 -273 -167 0
275 170 -168 0
275 -170 168 0
-275 170 168 0
-275 -170 -168 0
-277 276 0
-277 166 0
-277 165 -168 0
-277 -165 168 0
277 -276 165 168 -166 0
277 -276 -165 -168 -166 0
279 276 -165 0
279 -276 165 0
-279 276 165 0
-279 -276 -165 0
278 168 -166 0
278 -168 166 0
-278 168 166 0
-278 -168 -166 0
-280 279 0
-280 164 0
-280 163 -166 0
-280 -163 166 0
280 -279 163 166 -164 0
280 -279 -163 -166 -164 0
282 279 -163 0
282 -279 163 0
-282 279 163 0
-282 -279 -163 0
281 166 -164 0
281 -166 164 0
-281 166 164 0
-281 -166 -164 0
-283 282 0
-283 162 0
-283 161 -164 0
-283 -161 164 0
283 -282 161 164 -162 0
283 -282 -161 -164 -162 0
285 282 -161 0
285 -282 161 0
-285 282 161 0
-285 -282 -161 0
284 164 -162 0
284 -164 162 0
-284 164 162 0
-284 -164 -162 0
-286 285 0
-286 160 0
-286 159 -162 0
-286 -159 162 0
286 -285 159 162 -160 0
286 -285 -159 -162 -160 0
288 285 -159 0
288 -285 159 0
-288 285 159 0
-288 -285 -159 0
287 162 -160 0
287 -162 160 0
-287 162 160 0
-287 -162 -160 0
-289 288 0
-289 158 0
-289 157 -160 0
-289 -157 160 0
289 -288 157 160 -158 0
289 -288 -157 -160 -158 0
291 288 -157 0
291 -288 157 0
-291 288 157 0
-291 -288 -157 0
290 160 -158 0
290 -160 158 0
-290 160 158 0
-290 -160 -158 0
-292 291 0
-292 156 0
-292 155 -158 0
-292 -155 158 0
292 -291 155 158 -156 0
292 -291 -155 -158 -156 0
294 291 -155 0
294 -291 155 0
-294 291 155 0
-294 -291 -155 0
293 158 -156 0
293 -158 156 0
-293 158 156 0
-293 -158 -156 0
-295 294 0
-295 154 0
-295 153 -156 0
-295 -153 156 0
295 -294 153 156 -154 0
295 -294 -153 -156 -154 0
297 294 -153 0
297 -294 153 0
-297 294 153 0
-297 -294 -153 0
296 156 -154 0
296 -156 154 0
-296 156 154 0
-296 -156 -154 0
-298 297 0
-298 152 0
-298 151 -154 0
-298 -151 154 0
298 -297 151 154 -152 0
298 -297 -151 -154 -152 0
300 297 -151 0
300 -297 151 0
-300 297 151 0
-300 -297 -151 0
299 154 -152 0
299 -154 152 0
-299 154 152 0
-299 -154 -152 0
-301 300 0
-301 150 0
-301 149 -152 0
-301 -149 152 0
301 -300 149 152 -150 0
301 -300 -149 -152 -150 0
303 300 -149 0
303 -300 149 0
-303 300 149 0
-303 -300 -149 0
302 152 -150 0
302 -152 150 0
-302 152 150 0
-302 -152 -150 0
-304 303 0
-304 148 0
-304 147 -150 0
-304 -147 150 0
304 -303 147 150 -148 0
304 -303 -147 -150 -148 0
306 303 -147 0
306 -303 147 0
-306 303 147 0
-306 -303 -147 0
305 150 -148 0
305 -150 148 0
-305 150 148 0
-305 -150 -148 0
-307 306 0
-307 146 0
-307 145 -148 0
-307 -145 148 0
307 -306 145 148 -146 0
307 -306 -145 -148 -146 0
309 306 -145 0
309 -306 145 0
-309 306 145 0
-309 -306 -145 0
308 148 -146 0
308 -148 146 0
-308 148 146 0
-308 -148 -146 0
-310 309 0
-310 144 0
-310 143 -146 0
-310 -143 146 0
310 -309 143 146 -144 0
310 -309 -143 -146 -144 0
312 309 -143 0
312 -309 143 0
-312 309 143 0
-312 -309 -143 0
311 146 -144 0
311 -146 144 0
-311 146 144 0
-311 -146 -144 0
-313 312 0
-313 142 0
-313 141 -144 0
-313 -141 144 0
313 -312 141 144 -142 0
313 -312 -141 -144 -142 0
315 312 -141 0
315 -312 141 0
-315 312 141 0
-315 -312 -141 0
314 144 -142 0
314 -144 142 0
-314 144 142 0
-314 -144 -142 0
-316 315 0
-316 140 0
-316 139 -142 0
-316 -139 142 0
316 -315 139 142 -140 0
316 -315 -139 -142 -140 0
318 315 -139 0
318 -315 139 0
-318 315 139 0
-318 -315 -139 0
317 142 -140 0
317 -142 140 0
-317 142 140 0
-317 -142 -140 0
-319 318 0
-319 138 0
-319 137 -140 0
-319 -137 140 0
319 -318 137 140 -138 0
319 -318 -137 -140 -138 0
321 318 -137 0
321 -318 137 0
-321 318 137 0
-321 -318 -137 0
320 140 -138 0
320 -140 138 0
-320 140 138 0
-320 -140 -138 0
-322 321 0
-322 136 0
-322 135 -138 0
-322 -135 138 0
322 -321 135 138 -136 0
322 -321 -135 -138 -136 0
324 321 -135 0
324 -321 135 0
-324 321 135 0
-324 -321 -135 0
323 138 -136 0
323 -138 136 0
-323 138 136 0
-323 -138 -136 0
-325 324 0
-325 134 0
-325 133 -136 0
-325 -133 136 0
325 -324 133 136 -134 0
325 -324 -133 -136 -134 0
327 324 -133 0
327 -324 133 0
-327 324 133 0
-327 -324 -133 0
326 136 -134 0
326 -136 134 0
-326 136 134 0
-326 -136 -134 0
-328 327 0
-328 132 0
-328 131 -134 0
-328 -131 134 0
328 -327 131 134 -132 0
328 -327 -131 -134 -132 0
330 327 -131 0
330 -327 131 0
-330 327 131 0
-330 -327 -131 0
329 134 -132 0
329 -134 132 0
-329 134 132 0
-329 -134 -132 0
-331 330 0
-331 130 0
-331 129 -132 0
-331 -129 132 0
331 -330 129 132 -130 0
331 -330 -129 -132 -130 0
333 330 -129 0
333 -330 129 0
-333 330 129 0
-333 -330 -129 0
332 132 -130 0
332 -132 130 0
-332 132 130 0
-332 -132 -130 0
-334 333 0
-334 128 0
-334 127 -130 0
-334 -127 130 0
334 -333 127 130 -128 0
334 -333 -127 -130 -128 0
336 333 -127 0
336 -333 127 0
-336 333 127 0
-336 -333 -127 0
335 130 -128 0
335 -130 128 0
-335 130 128 0
-335 -130 -128 0
-337 336 0
-337 126 0
-337 125 -128 0
-337 -125 128 0
337 -336 125 128 -126 0
337 -336 -125 -128 -126 0
339 336 -125 0
339 -336 125 0
-339 336 125 0
-339 -336 -125 0
338 128 -126 0
338 -128 126 0
-338 128 126 0
-338 -128 -126 0
-340 339 0
-340 124 0
-340 123 -126 0
-340 -123 126 0
340 -339 123 126 -124 0
340 -339 -123 -126 -124 0
342 339 -123 0
342 -339 123 0
-342 339 123 0
-342 -339 -123 0
341 126 -124 0
341 -126 124 0
-341 126 124 0
-341 -126 -124 0
-343 342 0
-343 122 0
-343 121 -124 0
-343 -121 124 0
343 -342 121 124 -122 0
343 -342 -121 -124 -122 0
345 342 -121 0
345 -342 121 0
-345 342 121 0
-345 -342 -121 0
344 124 -122 0
344 -124 122 0
-344 124 122 0
-344 -124 -122 0
-346 345 0
-346 120 0
-346 119 -122 0
-346 -119 122 0
346 -345 119 122 -120 0
346 -345 -119 -122 -120 0
348 345 -119 0
348 -345 119 0
-348 345 119 0
-348 -345 -119 0
347 122 -120 0
347 -122 120 0
-347 122 120 0
-347 -122 -120 0
-349 348 0
-349 118 0
-349 117 -120 0
-349 -117 120 0
349 -348 117 120 -118 0
349 -348 -117 -120 -118 0
351 348 -117 0
351 -348 117 0
-351 348 117 0
-351 -348 -117 0
350 120 -118 0
350 -120 118 0
-350 120 118 0
-350 -120 -118 0
-352 351 0
-352 116 0
-352 115 -118 0
-352 -115 118 0
352 -351 115 118 -116 0
352 -351 -115 -118 -116 0
354 351 -115 0
354 -351 115 0
-354 351 115 0
-354 -351 -115 0
353 118 -116 0
353 -118 116 0
-353 118 116 0
-353 -118 -116 0
-355 354 0
-355 114 0
-355 113 -116 0
-355 -113 116 0
355 -354 113 116 -114 0
355 -354 -113 -116 -114 0
357 354 -113 0
357 -354 113 0
-357 354 113 0
-357 -354 -113 0
356 116 -114 0
356 -116 114 0
-356 116 114 0
-356 -116 -114 0
-358 357 0
-358 112 0
-358 111 -114 0
-358 -111 114 0
358 -357 111 114 -112 0
358 -357 -111 -114 -112 0
360 357 -111 0
360 -357 111 0
-360 357 111 0
-360 -357 -111 0
359 114 -112 0
359 -114 112 0
-359 114 112 0
-359 -114 -112 0
-361 360 0
-361 110 0
-361 109 -112 0
-361 -109 112 0
361 -360 109 112 -110 0
361 -360 -109 -112 -110 0
363 360 -109 0
363 -360 109 0
-363 360 109 0
-363 -360 -109 0
362 112 -110 0
362 -112 110 0
-362 112 110 0
-362 -112 -110 0
-364 363 0
-364 108 0
-364 107 -110 0
-364 -107 110 0
364 -363 107 110 -108 0
364 -363 -107 -110 -108 0
366 363 -107 0
366 -363 107 0
-366 363 107 0
-366 -363 -107 0
365 110 -108 0
365 -110 108 0
-365 110 108 0
-365 -110 -108 0
-367 366 0
-367 106 0
-367 105 -108 0
-367 -105 108 0
367 -366 105 108 -106 0
367 -366 -105 -108 -106 0
369 366 -105 0
369 -366 105 0
-369 366 105 0
-369 -366 -105 0
368 108 -106 0
368 -108 106 0
-368 108 106 0
-368 -108 -106 0
-370 369 0
-370 104 0
-370 103 -106 0
-370 -103 106 0
370 -369 103 106 -104 0
370 -369 -103 -106 -104 0
372 369 -103 0
372 -369 103 0
-372 369 103 0
-372 -369 -103 0
371 106 -104 0
371 -106 104 0
-371 106 104 0
-371 -106 -104 0
-373 372 0
-373 102 0
-373 101 -104 0
-373 -101 104 0
373 -372 101 104 -102 0
373 -372 -101 -104 -102 0
375 372 -101 0
375 -372 101 0
-375 372 101 0
-375 -372 -101 0
374 104 -102 0
374 -104 102 0
-374 104 102 0
-374 -104 -102 0
-376 375 0
-376 100 0
-376 99 -102 0
-376 -99 102 0
376 -375 99 102 -100 0
376 -375 -99 -102 -100 0
378 375 -99 0
378 -375 99 0
-378 375 99 0
-378 -375 -99 0
377 102 -100 0
377 -102 100 0
-377 102 100 0
-377 -102 -100 0
-379 378 0
-379 98 0
-379 97 -100 0
-379 -97 100 0
379 -378 97 100 -98 0
379 -378 -97 -100 -98 0
381 378 -97 0
381 -378 97 0
-381 378 97 0
-381 -378 -97 0
380 100 -98 0
380 -100 98 0
-380 100 98 0
-380 -100 -98 0
-382 381 0
-382 96 0
-382 95 -98 0
-382 -95 98 0
382 -381 95 98 -96 0
382 -381 -95 -98 -96 0
384 381 -95 0
384 -381 95 0
-384 381 95 0
-384 -381 -95 0
383 98 -96 0
383 -98 96 0
-383 98 96 0
-383 -98 -96 0
-385 384 0
-385 94 0
-385 93 -96 0
-385 -93 96 0
385 -384 93 96 -94 0
385 -384 -93 -96 -94 0
387 384 -93 0
387 -384 93 0
-387 384 93 0
-387 -384 -93 0
386 96 -94 0
386 -96 94 0
-386 96 94 0
-386 -96 -94 0
-388 387 0
-388 92 0
-388 91 -94 0
-388 -91 94 0
388 -387 91 94 -92 0
388 -387 -91 -94 -92 0
390 387 -91 0
390 -387 91 0
-390 387 91 0
-390 -387 -91 0
389 94 -92 0
389 -94 92 0
-389 94 92 0
-389 -94 -92 0
-391 390 0
-391 90 0
-391 89 -92 0
-391 -89 92 0
391 -390 89 92 -90 0
391 -390 -89 -92 -90 0
393 390 -89 0
393 -390 89 0
-393 390 89 0
-393 -390 -89 0
392 92 -90 0
392 -92 90 0
-392 92 90 0
-392 -92 -90 0
-394 393 0
-394 88 0
-394 87 -90 0
-394 -87 90 0
394 -393 87 90 -88 0
394 -393 -87 -90 -88 0
396 393 -87 0
396 -393 87 0
-396 393 87 0
-396 -393 -87 0
395 90 -88 0
395 -90 88 0
-395 90 88 0
-395 -90 -88 0
-397 396 0
-397 86 0
-397 85 -88 0
-397 -85 88 0
397 -396 85 88 -86 0
397 -396 -85 -88 -86 0
399 396 -85 0
399 -396 85 0
-399 396 85 0
-399 -396 -85 0
398 88 -86 0
398 -88 86 0
-398 88 86 0
-398 -88 -86 0
-400 399 0
-400 84 0
-400 83 -86 0
-400 -83 86 0
400 -399 83 86 -84 0
400 -399 -83 -86 -84 0
402 399 -83 0
402 -399 83 0
-402 399 83 0
-402 -399 -83 0
401 86 -84 0
401 -86 84 0
-401 86 84 0
-401 -86 -84 0
-403 402 0
-403 82 0
-403 81 -84 0
-403 -81 84 0
403 -402 81 84 -82 0
403 -402 -81 -84 -82 0
405 402 -81 0
405 -402 81 0
-405 402 81 0
-405 -402 -81 0
404 84 -82 0
404 -84 82 0
-404 84 82 0
-404 -84 -82 0
-406 405 0
-406 80 0
-406 79 -82 0
-406 -79 82 0
406 -405 79 82 -80 0
406 -405 -79 -82 -80 0
408 405 -79 0
408 -405 79 0
-408 405 79 0
-408 -405 -79 0
407 82 -80 0
407 -82 80 0
-407 82 80 0
-407 -82 -80 0
-409 408 0
-409 78 0
-409 77 -80 0
-409 -77 80 0
409 -408 77 80 -78 0
409 -408 -77 -80 -78 0
411 408 -77 0
411 -408 77 0
-411 408 77 0
-411 -408 -77 0
410 80 -78 0
410 -80 78 0
-410 80 78 0
-410 -80 -78 0
-412 411 0
-412 76 0
-412 75 -78 0
-412 -75 78 0
412 -411 75 78 -76 0
412 -411 -75 -78 -76 0
414 411 -75 0
414 -411 75 0
-414 411 75 0
-414 -411 -75 0
413 78 -76 0
413 -78 76 0
-413 78 76 0
-413 -78 -76 0
-415 414 0
-415 74 0
-415 73 -76 0
-415 -73 76 0
415 -414 73 76 -74 0
415 -414 -73 -76 -74 0
417 414 -73 0
417 -414 73 0
-417 414 73 0
-417 -414 -73 0
416 76 -74 0
416 -76 74 0
-416 76 74 0
-416 -76 -74 0
-418 417 0
-418 72 0
-418 71 -74 0
-418 -71 74 0
418 -417 71 74 -72 0
418 -417 -71 -74 -72 0
420 417 -71 0
420 -417 71 0
-420 417 71 0
-420 -417 -71 0
419 74 -72 0
419 -74 72 0
-419 74 72 0
-419 -74 -72 0
-421 420 0
-421 70 0
-421 69 -72 0
-421 -69 72 0
421 -420 69 72 -70 0
421 -420 -69 -72 -70 0
423 420 -69 0
423 -420 69 0
-423 420 69 0
-423 -420 -69 0
422 72 -70 0
422 -72 70 0
-422 72 70 0
-422 -72 -70 0
-424 423 0
-424 68 0
-424 67 -70 0
-424 -67 70 0
424 -423 67 70 -68 0
424 -423 -67 -70 -68 0
426 423 -67 0
426 -423 67 0
-426 423 67 0
-426 -423 -67 0
425 70 -68 0
425 -70 68 0
-425 70 68 0
-425 -70 -68 0
-427 426 0
-427 66 0
-427 65 -68 0
-427 -65 68 0
427 -426 65 68 -66 0
427 -426 -65 -68 -66 0
429 426 -65 0
429 -426 65 0
-429 426 65 0
-429 -426 -65 0
428 68 -66 0
428 -68 66 0
-428 68 66 0
-428 -68 -66 0
-430 429 0
-430 64 0
-430 63 -66 0
-430 -63 66 0
430 -429 63 66 -64 0
430 -429 -63 -66 -64 0
432 429 -63 0
432 -429 63 0
-432 429 63 0
-432 -429 -63 0
431 66 -64 0
431 -66 64 0
-431 66 64 0
-431 -66 -64 0
-433 432 0
-433 62 0
-433 61 -64 0
-433 -61 64 0
433 -432 61 64 -62 0
433 -432 -61 -64 -62 0
435 432 -61 0
435 -432 61 0
-435 432 61 0
-435 -432 -61 0
434 64 -62 0
434 -64 62 0
-434 64 62 0
-434 -64 -62 0
-436 435 0
-436 60 0
-436 59 -62 0
-436 -59 62 0
436 -435 59 62 -60 0
436 -435 -59 -62 -60 0
438 435 -59 0
438 -435 59 0
-438 435 59 0
-438 -435 -59 0
437 62 -60 0
437 -62 60 0
-437 62 60 0
-437 -62 -60 0
-439 438 0
-439 58 0
-439 57 -60 0
-439 -57 60 0
439 -438 57 60 -58 0
439 -438 -57 -60 -58 0
441 438 -57 0
441 -438 57 0
-441 438 57 0
-441 -438 -57 0
440 60 -58 0
440 -60 58 0
-440 60 58 0
-440 -60 -58 0
-442 441 0
-442 56 0
-442 55 -58 0
-442 -55 58 0
442 -441 55 58 -56 0
442 -441 -55 -58 -56 0
444 441 -55 0
444 -441 55 0
-444 441 55 0
-444 -441 -55 0
443 58 -56 0
443 -58 56 0
-443 58 56 0
-443 -58 -56 0
-445 444 0
-445 54 0
-445 53 -56 0
-445 -53 56 0
445 -444 53 56 -54 0
445 -444 -53 -56 -54 0
447 444 -53 0
447 -444 53 0
-447 444 53 0
-447 -444 -53 0
446 56 -54 0
446 -56 54 0
-446 56 54 0
-446 -56 -54 0
-448 447 0
-448 52 0
-448 51 -54 0
-448 -51 54 0
448 -447 51 54 -52 0
448 -447 -51 -54 -52 0
450 447 -51 0
450 -447 51 0
-450 447 51 0
-450 -447 -51 0
449 54 -52 0
449 -54 52 0
-449 54 52 0
-449 -54 -52 0
-451 450 0
-451 50 0
-451 49 -52 0
-451 -49 52 0
451 -450 49 52 -50 0
451 -450 -49 -52 -50 0
453 450 -49 0
453 -450 49 0
-453 450 49 0
-453 -450 -49 0
452 52 -50 0
452 -52 50 0
-452 52 50 0
-452 -52 -50 0
-454 453 0
-454 48 0
-454 47 -50 0
-454 -47 50 0
454 -453 47 50 -48 0
454 -453 -47 -50 -48 0
456 453 -47 0
456 -453 47 0
-456 453 47 0
-456 -453 -47 0
455 50 -48 0
455 -50 48 0
-455 50 48 0
-455 -50 -48 0
-457 456 0
-457 46 0
-457 45 -48 0
-457 -45 48 0
457 -456 45 48 -46 0
457 -456 -45 -48 -46 0
459 456 -45 0
459 -456 45 0
-459 456 45 0
-459 -456 -45 0
458 48 -46 0
458 -48 46 0
-458 48 46 0
-458 -48 -46 0
-460 459 0
-460 44 0
-460 43 -46 0
-460 -43 46 0
460 -459 43 46 -44 0
460 -459 -43 -46 -44 0
462 459 -43 0
462 -459 43 0
-462 459 43 0
-462 -459 -43 0
461 46 -44 0
461 -46 44 0
-461 46 44 0
-461 -46 -44 0
-463 462 0
-463 42 0
-463 41 -44 0
-463 -41 44 0
463 -462 41 44 -42 0
463 -462 -41 -44 -42 0
465 462 -41 0
465 -462 41 0
-465 462 41 0
-465 -462 -41 0
464 44 -42 0
464 -44 42 0
-464 44 42 0
-464 -44 -42 0
-466 465 0
-466 40 0
-466 39 -42 0
-466 -39 42 0
466 -465 39 42 -40 0
466 -465 -39 -42 -40 0
468 465 -39 0
468 -465 39 0
-468 465 39 0
-468 -465 -39 0
467 42 -40 0
467 -42 40 0
-467 42 40 0
-467 -42 -40 0
-469 468 0
-469 38 0
-469 37 -40 0
-469 -37 40 0
469 -468 37 40 -38 0
469 -468 -37 -40 -38 0
471 468 -37 0
471 -468 37 0
-471 468 37 0
-471 -468 -37 0
470 40 -38 0
470 -40 38 0
-470 40 38 0
-470 -40 -38 0
-472 471 0
-472 36 0
-472 35 -38 0
-472 -35 38 0
472 -471 35 38 -36 0
472 -471 -35 -38 -36 0
474 471 -35 0
474 -471 35 0
-474 471 35 0
-474 -471 -35 0
473 38 -36 0
473 -38 36 0
-473 38 36 0
-473 -38 -36 0
-475 474 0
-475 34 0
-475 33 -36 0
-475 -33 36 0
475 -474 33 36 -34 0
475 -474 -33 -36 -34 0
477 474 -33 0
477 -474 33 0
-477 474 33 0
-477 -474 -33 0
476 36 -34 0
476 -36 34 0
-476 36 34 0
-476 -36 -34 0
-478 477 0
-478 32 0
-478 31 -34 0
-478 -31 34 0
478 -477 31 34 -32 0
478 -477 -31 -34 -32 0
480 477 -31 0
480 -477 31 0
-480 477 31 0
-480 -477 -31 0
479 34 -32 0
479 -34 32 0
-479 34 32 0
-479 -34 -32 0
-481 480 0
-481 30 0
-481 29 -32 0
-481 -29 32 0
481 -480 29 32 -30 0
481 -480 -29 -32 -30 0
483 480 -29 0
483 -480 29 0
-483 480 29 0
-483 -480 -29 0
482 32 -30 0
482 -32 30 0
-482 32 30 0
-482 -32 -30 0
-484 483 0
-484 28 0
-484 27 -30 0
-484 -27 30 0
484 -483 27 30 -28 0
484 -483 -27 -30 -28 0
486 483 -27 0
486 -483 27 0
-486 483 27 0
-486 -483 -27 0
485 30 -28 0
485 -30 28 0
-485 30 28 0
-485 -30 -28 0
-487 486 0
-487 26 0
-487 25 -28 0
-487 -25 28 0
487 -486 25 28 -26 0
487 -486 -25 -28 -26 0
489 486 -25 0
489 -486 25 0
-489 486 25 0
-489 -486 -25 0
488 28 -26 0
488 -28 26 0
-488 28 26 0
-488 -28 -26 0
-490 489 0
-490 24 0
-490 23 -26 0
-490 -23 26 0
490 -489 23 26 -24 0
490 -489 -23 -26 -24 0
492 489 -23 0
492 -489 23 0
-492 489 23 0
-492 -489 -23 0
491 26 -24 0
491 -26 24 0
-491 26 24 0
-491 -26 -24 0
-493 492 0
-493 22 0
-493 21 -24 0
-493 -21 24 0
493 -492 21 24 -22 0
493 -492 -21 -24 -22 0
495 492 -21 0
495 -492 21 0
-495 492 21 0
-495 -492 -21 0
494 24 -22 0
494 -24 22 0
-494 24 22 0
-494 -24 -22 0
-496 495 0
-496 20 0
-496 19 -22 0
-496 -19 22 0
496 -495 19 22 -20 0
496 -495 -19 -22 -20 0
498 495 -19 0
498 -495 19 0
-498 495 19 0
-498 -495 -19 0
497 22 -20 0
497 -22 20 0
-497 22 20 0
-497 -22 -20 0
-499 498 0
-499 18 0
-499 17 -20 0
-499 -17 20 0
499 -498 17 20 -18 0
499 -498 -17 -20 -18 0
501 498 -17 0
501 -498 17 0
-501 498 17 0
-501 -498 -17 0
500 20 -18 0
500 -20 18 0
-500 20 18 0
-500 -20 -18 0
-502 501 0
-502 16 0
-502 15 -18 0
-502 -15 18 0
502 -501 15 18 -16 0
502 -501 -15 -18 -16 0
504 501 -15 0
504 -501 15 0
-504 501 15 0
-504 -501 -15 0
503 18 -16 0
503 -18 16 0
-503 18 16 0
-503 -18 -16 0
-505 504 0
-505 14 0
-505 13 -16 0
-505 -13 16 0
505 -504 13 16 -14 0
505 -504 -13 -16 -14 0
507 504 -13 0
507 -504 13 0
-507 504 13 0
-507 -504 -13 0
506 16 -14 0
506 -16 14 0
-506 16 14 0
-506 -16 -14 0
-508 507 0
-508 12 0
-508 11 -14 0
-508 -11 14 0
508 -507 11 14 -12 0
508 -507 -11 -14 -12 0
510 507 -11 0
510 -507 11 0
-510 507 11 0
-510 -507 -11 0
509 14 -12 0
509 -14 12 0
-509 14 12 0
-509 -14 -12 0
-511 510 0
-511 10 0
-511 9 -12 0
-511 -9 12 0
511 -510 9 12 -10 0
511 -510 -9 -12 -10 0
513 510 -9 0
513 -510 9 0
-513 510 9 0
-513 -510 -9 0
512 12 -10 0
512 -12 10 0
-512 12 10 0
-512 -12 -10 0
-514 513 0
-514 8 0
-514 7 -10 0
-514 -7 10 0
514 -513 7 10 -8 0
514 -513 -7 -10 -8 0
516 513 -7 0
516 -513 7 0
-516 513 7 0
-516 -513 -7 0
515 10 -8 0
515 -10 8 0
-515 10 8 0
-515 -10 -8 0
-517 516 0
-517 6 0
-517 5 -8 0
-517 -5 8 0
517 -516 5 8 -6 0
517 -516 -5 -8 -6 0
519 516 -5 0
519 -516 5 0
-519 516 5 0
-519 -516 -5 0
518 8 -6 0
518 -8 6 0
-518 8 6 0
-518 -8 -6 0
-520 519 0
-520 4 0
-520 3 -6 0
-520 -3 6 0
520 -519 3 6 -4 0
520 -519 -3 -6 -4 0
522 519 -3 0
522 -519 3 0
-522 519 3 0
-522 -519 -3 0
521 6 -4 0
521 -6 4 0
-521 6 4 0
-521 -6 -4 0
-523 522 0
-523 2 0
-523 1 -4 0
-523 -1 4 0
523 -522 1 4 -2 0
523 -522 -1 -4 -2 0
525 522 -1 0
525 -522 1 0
-525 522 1 0
-525 -522 -1 0
524 4 -2 0
524 -4 2 0
-524 4 2 0
-524 -4 -2 0
-525 0
-522 0
-524 0
-519 0
-521 0
-516 0
-518 0
-513 0
-515 0
-510 0
-512 0
-507 0
-509 0
-504 0
-506 0
-501 0
-503 0
-498 0
-500 0
-495 0
-497 0
-492 0
-494 0
-489 0
-491 0
-486 0
-488 0
-483 0
-485 0
-480 0
-482 0
-477 0
-479 0
-474 0
-476 0
-471 0
-473 0
-468 0
-470 0
-465 0
-467 0
-462 0
-464 0
-459 0
-461 0
-456 0
-458 0
-453 0
-455 0
-450 0
-452 0
-447 0
-449 0
-444 0
-446 0
-441 0
-443 0
-438 0
-440 0
-435 0
-437 0
-432 0
-434 0
-429 0
-431 0
-426 0
-428 0
-423 0
-425 0
-420 0
-422 0
-417 0
-419 0
-414 0
-416 0
-411 0
-413 0
-408 0
-410 0
-405 0
-407 0
-402 0
-404 0
-399 0
-401 0
-396 0
-398 0
-393 0
-395 0
-390 0
-392 0
-387 0
-389 0
-384 0
-386 0
-381 0
-383 0
-378 0
-380 0
-375 0
-377 0
-372 0
-374 0
-369 0
-371 0
-366 0
-368 0
-363 0
-365 0
-360 0
-362 0
-357 0
-359 0
-354 0
-356 0
-351 0
-353 0
-348 0
-350 0
-345 0
-347 0
-342 0
-344 0
-339 0
-341 0
-336 0
-338 0
-333 0
-335 0
-330 0
-332 0
-327 0
-329 0
-324 0
-326 0
-321 0
-323 0
-318 0
-320 0
-315 0
-317 0
-312 0
-314 0
-309 0
-311 0
-306 0
-308 0
-303 0
-305 0
-300 0
-302 0
-297 0
-299 0
-294 0
-296 0
-291 0
-293 0
-288 0
-290 0
-285 0
-287 0
-282 0
-284 0
-279 0
-281 0
-276 0
-278 0
-273 0
-275 0
-270 0
-272 0
-267 0
-269 0
-264 0
-266 0
-261 0
-263 0
-258 0
-260 0
-255 0
-257 0
-252 0
-254 0
-249 0
-251 0
-246 0
-248 0
-243 0
-245 0
-240 0
-242 0
-237 0
-239 0
-234 0
-236 0
-231 0
-233 0
-228 0
-230 0
-225 0
-227 0
-222 0
-224 0
-219 0
-221 0
-212 0
-218 0
